HFSDDW
15	9	3
0	6	1	32	2	55
0	44	1	69	2	17
0	12	1	39	2	1
0	7	1	2	2	27
0	89	1	43	2	40
0	88	1	97	2	10
0	71	1	75	2	10
0	39	1	39	2	18
0	94	1	96	2	26
0	20	1	31	2	47
0	62	1	25	2	98
0	51	1	52	2	20
0	65	1	42	2	77
0	3	1	5	2	52
0	92	1	37	2	88
LBCmax: 313
RELDUE
-1	115	9	9
-1	88	1	5
-1	251	5	7
-1	114	3	4
-1	60	9	2
-1	199	3	6
-1	96	3	7
-1	280	7	6
-1	94	5	1
-1	0	3	5
-1	178	6	4
-1	260	7	1
-1	85	7	2
-1	123	3	6
-1	199	4	8
DDW
112	118
85	91
226	276
113	115
59	61
195	203
91	101
269	291
85	103
0	0
174	182
257	263
76	94
119	127
197	201
